<?xml version = "1.0" standalone="yes"?>
<!-- This file has been generated by DOcplex version 2.23.222  -->
<CPLEXSolution version="1.0">
 <header
   problemName="CVRP"
   objectiveValue="13350.2"
  />
 <variables>
  <variable name="x_0_1" index="0" value="1.00000"/>
  <variable name="x_0_4" index="3" value="1.00000"/>
  <variable name="x_0_7" index="6" value="1.00000"/>
  <variable name="x_0_8" index="7" value="1.00000"/>
  <variable name="x_0_9" index="8" value="1.00000"/>
  <variable name="x_0_10" index="9" value="1.00000"/>
  <variable name="x_0_11" index="10" value="1.00000"/>
  <variable name="x_0_12" index="11" value="1.00000"/>
  <variable name="x_0_13" index="12" value="1.00000"/>
  <variable name="x_0_14" index="13" value="1.00000"/>
  <variable name="x_0_17" index="16" value="1.00000"/>
  <variable name="x_1_0" index="17" value="1.00000"/>
  <variable name="x_2_6" index="39" value="1.00000"/>
  <variable name="x_3_0" index="51" value="1.00000"/>
  <variable name="x_4_0" index="68" value="1.00000"/>
  <variable name="x_5_0" index="85" value="1.00000"/>
  <variable name="x_6_0" index="102" value="1.00000"/>
  <variable name="x_7_15" index="133" value="1.00000"/>
  <variable name="x_8_16" index="151" value="1.00000"/>
  <variable name="x_9_0" index="153" value="1.00000"/>
  <variable name="x_10_5" index="175" value="1.00000"/>
  <variable name="x_11_0" index="187" value="1.00000"/>
  <variable name="x_12_2" index="206" value="1.00000"/>
  <variable name="x_13_0" index="221" value="1.00000"/>
  <variable name="x_14_3" index="241" value="1.00000"/>
  <variable name="x_15_0" index="255" value="1.00000"/>
  <variable name="x_16_0" index="272" value="1.00000"/>
  <variable name="x_17_0" index="289" value="1.00000"/>
  <variable name="u_1" index="306" value="39.00000"/>
  <variable name="u_2" index="307" value="29.00000"/>
  <variable name="u_3" index="308" value="37.00000"/>
  <variable name="u_4" index="309" value="33.00000"/>
  <variable name="u_5" index="310" value="36.00000"/>
  <variable name="u_6" index="311" value="39.00000"/>
  <variable name="u_7" index="312" value="25.00000"/>
  <variable name="u_8" index="313" value="16.00000"/>
  <variable name="u_9" index="314" value="25.00000"/>
  <variable name="u_10" index="315" value="5.00000"/>
  <variable name="u_11" index="316" value="20.00000"/>
  <variable name="u_12" index="317" value="3.00000"/>
  <variable name="u_13" index="318" value="21.00000"/>
  <variable name="u_14" index="319" value="27.00000"/>
  <variable name="u_15" index="320" value="35.00000"/>
  <variable name="u_16" index="321" value="39.00000"/>
  <variable name="u_17" index="322" value="39.00000"/>
 </variables>
</CPLEXSolution>
